Version identifier: 22.1.0.0 | 2022-03-09 | 1a383f8ce
CPXPARAM_Read_DataCheck                          1
Tried aggregator 3 times.
MIP Presolve eliminated 6052 rows and 1160 columns.
MIP Presolve modified 155 coefficients.
Aggregator did 5012 substitutions.
Reduced MIP has 1333 rows, 5378 columns, and 12079 nonzeros.
Reduced MIP has 5364 binaries, 14 generals, 0 SOSs, and 0 indicators.
Presolve time = 0.03 sec. (39.05 ticks)
Probing fixed 22 vars, tightened 0 bounds.
Probing changed sense of 6 constraints.
Probing time = 0.01 sec. (1.80 ticks)
Tried aggregator 2 times.
Detecting symmetries...
MIP Presolve eliminated 20 rows and 27 columns.
Aggregator did 10 substitutions.
Reduced MIP has 1303 rows, 5341 columns, and 11954 nonzeros.
Reduced MIP has 5327 binaries, 14 generals, 0 SOSs, and 0 indicators.
Presolve time = 0.01 sec. (12.57 ticks)
Probing fixed 1 vars, tightened 0 bounds.
Probing time = 0.01 sec. (2.01 ticks)
Clique table members: 11133.
MIP emphasis: balance optimality and feasibility.
MIP search method: dynamic search.
Parallel mode: deterministic, using up to 8 threads.
Root relaxation solution time = 0.09 sec. (36.76 ticks)

        Nodes                                         Cuts/
   Node  Left     Objective  IInf  Best Integer    Best Bound    ItCnt     Gap

      0     0       14.4881  1073                     14.4881     1191         
      0     0       25.0000   477                    Cuts: 78     3000         
      0     0       25.0000   424                    Cuts: 28     4239         
      0     0       25.0000   507                    Cuts: 18     5166         
*     0+    0                           25.0000       25.0000             0.00%
      0     0        cutoff             25.0000       25.0000     5166    0.00%
Elapsed time = 3.67 sec. (3516.06 ticks, tree = 0.01 MB, solutions = 1)

Zero-half cuts applied:  33
Gomory fractional cuts applied:  13

Root node processing (before b&c):
  Real time             =    3.68 sec. (3516.49 ticks)
Parallel b&c, 8 threads:
  Real time             =    0.00 sec. (0.00 ticks)
  Sync time (average)   =    0.00 sec.
  Wait time (average)   =    0.00 sec.
                          ------------
Total (root+branch&cut) =    3.68 sec. (3516.49 ticks)
